
Gurobi 9.5.1 (linux64) logging started Sun Jun 19 15:10:10 2022

Set parameter LogFile to value "../results/logs/log_soc-catster.e_21_250_2022_06_19_13_09.log"
Gurobi Optimizer version 9.5.1 build v9.5.1rc2 (linux64)
Thread count: 8 physical cores, 8 logical processors, using up to 8 threads
Optimize a model with 89645 rows, 299368 columns and 424444 nonzeros
Model fingerprint: 0xd4059843
Variable types: 0 continuous, 299368 integer (299368 binary)
Coefficient statistics:
  Matrix range     [1e+00, 2e+01]
  Objective range  [1e+00, 1e+00]
  Bounds range     [1e+00, 1e+00]
  RHS range        [1e+00, 2e+02]
Found heuristic solution: objective 78945.000000
Presolve removed 87215 rows and 296426 columns
Presolve time: 0.27s
Presolved: 2430 rows, 2942 columns, 9372 nonzeros
Extracted 1140 lazy constraints
Found heuristic solution: objective 79327.000000
Variable types: 0 continuous, 2942 integer (2660 binary)

Root relaxation: objective 7.990480e+04, 779 iterations, 0.00 seconds (0.00 work units)

    Nodes    |    Current Node    |     Objective Bounds      |     Work
 Expl Unexpl |  Obj  Depth IntInf | Incumbent    BestBd   Gap | It/Node Time

     0     0 79904.7953    0  349 79327.0000 79904.7953  0.73%     -    0s
     0     0 79574.3363    0  179 79327.0000 79574.3363  0.31%     -    0s
     0     0 79565.2045    0  166 79327.0000 79565.2045  0.30%     -    0s
     0     0 79565.2045    0  165 79327.0000 79565.2045  0.30%     -    0s
H    0     0                    79550.000000 79565.2045  0.02%     -    0s
     0     0 79564.0894    0   72 79550.0000 79564.0894  0.02%     -    0s
     0     0 79563.4363    0   62 79550.0000 79563.4363  0.02%     -    0s
     0     0 79563.3970    0   64 79550.0000 79563.3970  0.02%     -    0s
H    0     0                    79558.000000 79563.3970  0.01%     -    0s
H    0     0                    79559.000000 79563.3970  0.01%     -    0s
     0     0 79562.4226    0   51 79559.0000 79562.4226  0.00%     -    0s
     0     0 79562.3611    0   38 79559.0000 79562.3611  0.00%     -    0s
H    0     0                    79560.000000 79562.3611  0.00%     -    0s
     0     0 79561.9034    0   37 79560.0000 79561.9034  0.00%     -    0s
     0     0 79561.8032    0   44 79560.0000 79561.8032  0.00%     -    0s
     0     0 79561.7315    0   16 79560.0000 79561.7315  0.00%     -    0s
     0     0 79561.7315    0  162 79560.0000 79561.7315  0.00%     -    0s
     0     0 79561.7315    0   59 79560.0000 79561.7315  0.00%     -    0s
     0     0 79561.7269    0   28 79560.0000 79561.7269  0.00%     -    0s
     0     0 79561.5975    0   30 79560.0000 79561.5975  0.00%     -    0s
     0     0 79561.5680    0   31 79560.0000 79561.5680  0.00%     -    0s
     0     0 79561.3265    0   23 79560.0000 79561.3265  0.00%     -    0s
     0     0 79561.3265    0   29 79560.0000 79561.3265  0.00%     -    0s
     0     0 79561.3265    0   28 79560.0000 79561.3265  0.00%     -    0s
     0     0 79561.3265    0   27 79560.0000 79561.3265  0.00%     -    0s
     0     0 79561.3265    0   24 79560.0000 79561.3265  0.00%     -    0s
     0     0 79561.3246    0   26 79560.0000 79561.3246  0.00%     -    0s
     0     0 79561.1500    0   19 79560.0000 79561.1500  0.00%     -    0s
     0     0 79561.1500    0   12 79560.0000 79561.1500  0.00%     -    0s
H    0     0                    79561.000000 79561.1500  0.00%     -    0s

Cutting planes:
  Gomory: 6
  Lift-and-project: 1
  Implied bound: 1
  MIR: 31
  GUB cover: 1
  Zero half: 2
  RLT: 3
  Relax-and-lift: 4

Explored 1 nodes (3208 simplex iterations) in 0.81 seconds (0.49 work units)
Thread count was 8 (of 8 available processors)

Solution count 10: 79561 79560 79559 ... 78945

Optimal solution found (tolerance 0.00e+00)
Best objective 7.956100000000e+04, best bound 7.956100000000e+04, gap 0.0000%
